NAME : STSP_200-2over3
COMMENT : Length = 1845
COMMENT : Found by LKH-3 [Keld Helsgaun]
TYPE : TOUR
DIMENSION : 200
TOUR_SECTION
17
141
193
141
144
111
129
137
47
137
198
9
198
62
58
92
171
20
109
161
32
130
85
182
18
80
64
77
41
106
41
44
55
24
160
192
74
192
113
26
23
128
167
103
196
76
196
46
8
36
170
120
115
53
7
157
91
78
142
183
200
197
50
197
200
48
127
191
14
145
14
90
136
90
12
40
12
188
71
143
68
143
71
101
61
93
162
93
61
1
5
166
194
123
69
172
3
165
139
37
132
174
110
102
176
86
31
89
38
168
125
179
87
147
199
154
199
21
75
152
15
189
186
51
186
116
181
73
99
190
108
104
27
187
54
151
54
153
97
11
95
11
84
10
119
96
169
117
169
133
131
57
13
118
156
177
94
81
83
19
59
19
29
65
159
178
158
56
140
35
100
33
135
22
105
126
43
121
39
49
30
52
30
138
6
134
6
60
34
107
164
45
146
66
185
72
28
4
28
114
163
114
122
-1
EOF
